56222
1, 27, 31, 25, 11, 52, 45, 2, 14, 9, 34, 53, 23, 21, 29, 46, 39, 36, 15, 16, 22, 10, 17, 48, 49, 19, 44, 8, 38, 32, 41, 5, 35, 24, 50, 20, 7, 37, 40, 51, 13, 43, 3, 28, 6, 55, 26, 54, 47, 30, 4, 18, 12, 42, 33
